coords = array2d(1..20, 1..2, [787, 342, 110, 673, 552, 21, 161, 250, 911, 425,
    505, 586, 954, 395, 644, 704, 110, 828, 145, 397, 378, 39, 513,
    604, 938, 915, 923, 846, 403, 673, 627, 884, 544, 356, 95, 852,
    167, 192, 688, 820]);

n = 20;

